Problem:    FinestreTemporali
Rows:       34
Columns:    21 (15 integer, 15 binary)
Non-zeros:  88
Status:     INTEGER OPTIMAL
Objective:  z = 380 (MINimum)

   No.   Row name        Activity     Lower bound   Upper bound
------ ------------    ------------- ------------- -------------
     1 visitaTutti[0]
                                   1             1             = 
     2 visitaTutti[1]
                                   1             1             = 
     3 visitaTutti[2]
                                   1             1             = 
     4 visitaTutti[3]
                                   1             1             = 
     5 visitaTutti[4]
                                   1             1             = 
     6 visitaTutti[5]
                                   1             1             = 
     7 istanteDiArrivo[0]
                                -172                          -0 
     8 istanteDiArrivo[1]
                                 -20                          -0 
     9 istanteDiArrivo[2]
                                 -20                          -0 
    10 istanteDiArrivo[3]
                                   0                          -0 
    11 istanteDiArrivo[4]
                                 -36                          -0 
    12 istanteDiArrivo[5]
                                 -92                          -0 
    13 istanteDipartenza[0]
                                  28            -0               
    14 istanteDipartenza[1]
                                   0            -0               
    15 istanteDipartenza[2]
                                   4            -0               
    16 istanteDipartenza[3]
                                   8            -0               
    17 istanteDipartenza[4]
                                   4            -0               
    18 istanteDipartenza[5]
                                   8            -0               
    19 visitaConsecuitiva[1,0]
                                  48            48               
    20 visitaConsecuitiva[2,0]
                                 168            80               
    21 visitaConsecuitiva[2,1]
                                 120            80               
    22 visitaConsecuitiva[3,0]
                                 240            72               
    23 visitaConsecuitiva[3,1]
                                 192            72               
    24 visitaConsecuitiva[3,2]
                                  72            72               
    25 visitaConsecuitiva[4,0]
                                 328            88               
    26 visitaConsecuitiva[4,1]
                                 280            88               
    27 visitaConsecuitiva[4,2]
                                 160            88               
    28 visitaConsecuitiva[4,3]
                                  88            88               
    29 visitaConsecuitiva[5,0]
                                 380            52               
    30 visitaConsecuitiva[5,1]
                                 332            52               
    31 visitaConsecuitiva[5,2]
                                 212            52               
    32 visitaConsecuitiva[5,3]
                                 140            52               
    33 visitaConsecuitiva[5,4]
                                  52            52               
    34 z                         380                             

   No. Column name       Activity     Lower bound   Upper bound
------ ------------    ------------- ------------- -------------
     1 t[0]                      172                             
     2 t[1]                      220                             
     3 t[2]                      340                             
     4 t[3]                      412                             
     5 t[4]                      500                             
     6 t[5]                      552                             
     7 x[0,1]       *              1             0             1 
     8 x[1,1]       *              0             0             1 
     9 x[1,2]       *              0             0             1 
    10 x[1,3]       *              1             0             1 
    11 x[2,1]       *              0             0             1 
    12 x[2,2]       *              0             0             1 
    13 x[2,3]       *              1             0             1 
    14 x[3,1]       *              0             0             1 
    15 x[3,2]       *              0             0             1 
    16 x[3,3]       *              0             0             1 
    17 x[3,4]       *              1             0             1 
    18 x[4,1]       *              0             0             1 
    19 x[4,2]       *              0             0             1 
    20 x[4,3]       *              1             0             1 
    21 x[5,1]       *              1             0             1 

Integer feasibility conditions:

KKT.PE: max.abs.err = 0.00e+000 on row 0
        max.rel.err = 0.00e+000 on row 0
        High quality

KKT.PB: max.abs.err = 0.00e+000 on row 0
        max.rel.err = 0.00e+000 on row 0
        High quality

End of output
